
630.0
630.0
630.0
630.0
630.0
630.0
630.0
630.0
630.0
630.0
810.0
630.0
630.0
630.0
690.0
630.0
630.0
1020.0
870.0
630.0
630.0
630.0
1140.0
630.0
630.0
630.0
630.0
630.0
630.0
630.0
630.0
630.0
630.0
840.0
630.0
630.0
810.0
630.0
690.0
630.0
630.0
960.0
630.0
630.0
630.0
630.0
630.0
630.0
630.0
630.0